(set-logic QF_S)
(declare-fun var0 () String)
(assert (str.in.re var0 (re.++ (re.+ (re.* (str.to.re "000"))) (re.++ (re.* (re.* (str.to.re "111"))) (re.++ (re.* (re.+ (str.to.re "222"))) (re.++ (re.+ (re.* (str.to.re "333"))) (re.++ (re.* (re.+ (str.to.re "444"))) (re.++ (re.union (re.+ (str.to.re "555")) (re.+ (str.to.re "6"))) (re.++ (re.+ (re.+ (str.to.re "777"))) (re.++ (re.* (re.+ (str.to.re "88"))) (re.++ (re.union (re.+ (str.to.re "99")) (re.+ (str.to.re "aa"))) (re.* (re.union (str.to.re "bbb") (str.to.re "ccc"))))))))))))))
(assert (<= 251 (str.len var0)))
(check-sat)